20	5
0	6	5	2	3	4	6	1
1	3	14	7	11
2	3	11	8	7
3	1	13
4	2	11	14
5	2	16	17
6	3	12	9	10
7	1	12
8	2	9	14
9	2	20	15
10	1	20
11	2	19	10
12	1	18
13	2	16	17
14	1	10
15	1	19
16	3	11	7	8
17	2	11	7
18	1	15
19	1	21
20	1	21
21	0
0	0	0	0	0	0	0
1	9	2	3	3	4	2
2	7	4	2	5	2	2
3	3	4	1	0	0	1
4	10	0	0	4	4	3
5	4	4	0	2	0	2
6	10	0	4	4	4	0
7	10	5	1	0	3	3
8	8	3	1	2	2	1
9	7	5	0	3	1	2
10	1	1	3	4	4	1
11	4	5	5	3	2	3
12	1	2	5	1	0	5
13	3	0	0	3	0	3
14	6	2	0	1	0	0
15	1	0	4	0	0	0
16	7	5	2	5	4	2
17	8	1	2	3	3	0
18	4	0	0	1	2	5
19	5	1	0	5	1	1
20	6	2	1	2	3	4
21	0	0	0	0	0	0
6	6	6	6	5
